Welcome to the CBC MILP Solver 
Version: 2.10.7 
Build Date: Feb 14 2022 

command line - cbc inputs/new_tr/order/default30_default_input.lp sec 1800 solve solu solutions/new_tr/default30_default_input.lp (default strategy 1)
seconds was changed from 1e+100 to 1800
Continuous objective value is 27136 - 0.01 seconds
Cgl0002I 579 variables fixed
Cgl0003I 0 fixed, 1 tightened bounds, 295 strengthened rows, 0 substitutions
Cgl0003I 0 fixed, 0 tightened bounds, 9 strengthened rows, 0 substitutions
Cgl0004I processed model has 1481 rows, 489 columns (489 integer (458 of which binary)) and 4847 elements
Cutoff increment increased from 1e-05 to 0.9999
Cbc0045I 1 integer variables out of 489 objects (489 integer) have cost of 1 - high priority
Cbc0045I branch on satisfied Y create fake objective Y random cost Y
Cbc0038I Initial state - 141 integers unsatisfied sum - 28.513
Cbc0038I Pass   1: suminf.    6.96631 (56) obj. 30073.4 iterations 327
Cbc0038I Pass   2: suminf.    6.40234 (53) obj. 30073.4 iterations 59
Cbc0038I Pass   3: suminf.    1.69317 (10) obj. 31744 iterations 183
Cbc0038I Pass   4: suminf.    0.00000 (0) obj. 31744 iterations 30
Cbc0038I Solution found of 31744
Cbc0038I Cleaned solution of 31744
Cbc0038I Before mini branch and bound, 328 integers at bound fixed and 0 continuous of which 1 were internal integer and 0 internal continuous
Cbc0038I Full problem 1481 rows 489 columns, reduced to 409 rows 125 columns
Cbc0038I Mini branch and bound improved solution from 31744 to 28672 (0.11 seconds)
Cbc0038I Round again with cutoff of 28517.5
Cbc0038I Reduced cost fixing fixed 11 variables on major pass 2
Cbc0038I Pass   5: suminf.    6.91179 (62) obj. 28517 iterations 24
Cbc0038I Pass   6: suminf.    6.61568 (65) obj. 28517.5 iterations 78
Cbc0038I Pass   7: suminf.    6.28808 (60) obj. 28517.5 iterations 96
Cbc0038I Pass   8: suminf.    5.88894 (55) obj. 28517.5 iterations 53
Cbc0038I Pass   9: suminf.    9.65633 (65) obj. 28517.5 iterations 166
Cbc0038I Pass  10: suminf.    6.23037 (62) obj. 28517.5 iterations 54
Cbc0038I Pass  11: suminf.    5.94332 (57) obj. 28517.5 iterations 23
Cbc0038I Pass  12: suminf.    3.28664 (46) obj. 28517.5 iterations 92
Cbc0038I Pass  13: suminf.    3.02492 (29) obj. 28517.5 iterations 34
Cbc0038I Pass  14: suminf.    5.95730 (36) obj. 28517.5 iterations 92
Cbc0038I Pass  15: suminf.    5.34579 (35) obj. 28517.5 iterations 5
Cbc0038I Pass  16: suminf.    5.10565 (34) obj. 28517.5 iterations 77
Cbc0038I Pass  17: suminf.    4.69389 (28) obj. 28517.5 iterations 10
Cbc0038I Pass  18: suminf.    5.31445 (29) obj. 28517.5 iterations 27
Cbc0038I Pass  19: suminf.    4.54870 (29) obj. 28517.5 iterations 4
Cbc0038I Pass  20: suminf.    5.22781 (33) obj. 28517.5 iterations 35
Cbc0038I Pass  21: suminf.   27.28488 (145) obj. 28517.5 iterations 292
Cbc0038I Pass  22: suminf.   18.35750 (121) obj. 28517.5 iterations 182
Cbc0038I Pass  23: suminf.   17.54307 (122) obj. 28517.5 iterations 15
Cbc0038I Pass  24: suminf.   12.27912 (106) obj. 28517.5 iterations 134
Cbc0038I Pass  25: suminf.   10.33290 (99) obj. 28517.5 iterations 39
Cbc0038I Pass  26: suminf.    9.20274 (95) obj. 28517.5 iterations 5
Cbc0038I Pass  27: suminf.    6.45335 (55) obj. 28517.5 iterations 120
Cbc0038I Pass  28: suminf.    4.58325 (55) obj. 28517.5 iterations 5
Cbc0038I Pass  29: suminf.    8.09421 (50) obj. 28517.5 iterations 51
Cbc0038I Pass  30: suminf.    7.32846 (50) obj. 28517.5 iterations 19
Cbc0038I Pass  31: suminf.    6.59364 (49) obj. 28517.5 iterations 53
Cbc0038I Pass  32: suminf.    5.75463 (41) obj. 28517.5 iterations 16
Cbc0038I Pass  33: suminf.    5.98275 (42) obj. 28517.5 iterations 81
Cbc0038I Pass  34: suminf.    6.04496 (38) obj. 28517.5 iterations 17
Cbc0038I Pass  35: suminf.    6.45290 (26) obj. 28517.5 iterations 87
Cbc0038I Pass  36: suminf.    5.80721 (27) obj. 28517.5 iterations 18
Cbc0038I Pass  37: suminf.    4.78197 (17) obj. 28517.5 iterations 32
Cbc0038I Pass  38: suminf.    4.68050 (20) obj. 28517.5 iterations 8
Cbc0038I Pass  39: suminf.    5.85516 (26) obj. 28517.5 iterations 63
Cbc0038I Pass  40: suminf.    4.58767 (23) obj. 28517.5 iterations 22
Cbc0038I Pass  41: suminf.    4.40698 (15) obj. 28517.5 iterations 37
Cbc0038I Pass  42: suminf.    1.88289 (16) obj. 28517.5 iterations 83
Cbc0038I Pass  43: suminf.    5.65968 (16) obj. 28517.5 iterations 109
Cbc0038I Pass  44: suminf.    2.51466 (15) obj. 28517.5 iterations 62
Cbc0038I Pass  45: suminf.    4.02506 (12) obj. 28517.5 iterations 30
Cbc0038I Pass  46: suminf.    1.25430 (12) obj. 28517.5 iterations 138
Cbc0038I Pass  47: suminf.   28.30445 (127) obj. 28517.5 iterations 289
Cbc0038I Pass  48: suminf.   14.29188 (83) obj. 28517.5 iterations 244
Cbc0038I Pass  49: suminf.    9.52835 (73) obj. 28517.5 iterations 67
Cbc0038I Pass  50: suminf.    9.16846 (64) obj. 28517.5 iterations 19
Cbc0038I Pass  51: suminf.    6.05493 (66) obj. 28517.5 iterations 122
Cbc0038I Pass  52: suminf.    1.67680 (29) obj. 28517.5 iterations 53
Cbc0038I Pass  53: suminf.    1.67680 (29) obj. 28517.5 iterations 4
Cbc0038I Pass  54: suminf.    6.44238 (33) obj. 28517.5 iterations 64
Cbc0038I Pass  55: suminf.    6.69078 (42) obj. 28517.5 iterations 27
Cbc0038I Pass  56: suminf.    7.44470 (43) obj. 28517.5 iterations 9
Cbc0038I Pass  57: suminf.    6.91031 (36) obj. 28517.5 iterations 56
Cbc0038I Pass  58: suminf.    5.44909 (36) obj. 28517.5 iterations 23
Cbc0038I Pass  59: suminf.    5.80547 (27) obj. 28517.5 iterations 48
Cbc0038I Pass  60: suminf.    1.25430 (12) obj. 28517.5 iterations 43
Cbc0038I Pass  61: suminf.    1.25430 (12) obj. 28517.5 iterations 20
Cbc0038I Pass  62: suminf.    4.50527 (23) obj. 28517.5 iterations 43
Cbc0038I Pass  63: suminf.    4.50527 (23) obj. 28517.5 iterations 5
Cbc0038I Pass  64: suminf.    6.45290 (26) obj. 28517.5 iterations 55
Cbc0038I Pass  65: suminf.    5.80721 (27) obj. 28517.5 iterations 14
Cbc0038I Pass  66: suminf.    4.57664 (27) obj. 28517.5 iterations 50
Cbc0038I Pass  67: suminf.    3.04883 (29) obj. 28517.5 iterations 21
Cbc0038I Pass  68: suminf.    2.81147 (26) obj. 28517.5 iterations 19
Cbc0038I Pass  69: suminf.    5.46372 (33) obj. 28517.5 iterations 55
Cbc0038I Pass  70: suminf.    4.96041 (34) obj. 28517.5 iterations 19
Cbc0038I Pass  71: suminf.    7.29260 (37) obj. 28517.5 iterations 56
Cbc0038I Pass  72: suminf.    5.25954 (34) obj. 28517.5 iterations 11
Cbc0038I Pass  73: suminf.    5.46454 (29) obj. 28517.5 iterations 49
Cbc0038I Pass  74: suminf.    5.45153 (28) obj. 28517.5 iterations 7
Cbc0038I Pass  75: suminf.    1.87364 (24) obj. 28517.5 iterations 50
Cbc0038I Pass  76: suminf.    1.87364 (24) obj. 28517.5 iterations 7
Cbc0038I Pass  77: suminf.    4.92271 (33) obj. 28517.5 iterations 47
Cbc0038I Pass  78: suminf.    4.79218 (33) obj. 28517.5 iterations 10
Cbc0038I Pass  79: suminf.    5.13544 (31) obj. 28517.5 iterations 54
Cbc0038I Pass  80: suminf.    4.98054 (31) obj. 28517.5 iterations 5
Cbc0038I Pass  81: suminf.    4.95987 (26) obj. 28517.5 iterations 37
Cbc0038I Pass  82: suminf.    2.26142 (26) obj. 28517.5 iterations 123
Cbc0038I Pass  83: suminf.    4.69758 (29) obj. 28517.5 iterations 41
Cbc0038I Pass  84: suminf.    4.66491 (28) obj. 28517.5 iterations 3
Cbc0038I Pass  85: suminf.    2.03340 (25) obj. 28517.5 iterations 64
Cbc0038I Pass  86: suminf.    2.06365 (23) obj. 28517.5 iterations 7
Cbc0038I Pass  87: suminf.    5.29759 (33) obj. 28517.5 iterations 71
Cbc0038I Pass  88: suminf.    4.77391 (30) obj. 28517.5 iterations 5
Cbc0038I Pass  89: suminf.    6.68015 (40) obj. 28517.5 iterations 68
Cbc0038I Pass  90: suminf.    5.75073 (37) obj. 28517.5 iterations 17
Cbc0038I Pass  91: suminf.    3.97975 (26) obj. 28517.5 iterations 41
Cbc0038I Pass  92: suminf.    3.69295 (26) obj. 28517.5 iterations 7
Cbc0038I Pass  93: suminf.    3.36080 (21) obj. 28517.5 iterations 11
Cbc0038I Pass  94: suminf.    3.26223 (26) obj. 28517.5 iterations 53
Cbc0038I Pass  95: suminf.    2.49530 (19) obj. 28517.5 iterations 21
Cbc0038I Pass  96: suminf.    4.34263 (22) obj. 28517.5 iterations 47
Cbc0038I Pass  97: suminf.    1.65616 (22) obj. 28517.5 iterations 120
Cbc0038I Pass  98: suminf.    4.81845 (24) obj. 28517.5 iterations 36
Cbc0038I Pass  99: suminf.    4.81845 (24) obj. 28517.5 iterations 7
Cbc0038I Pass 100: suminf.    1.57188 (22) obj. 28517.5 iterations 61
Cbc0038I Pass 101: suminf.   24.31425 (136) obj. 28517.5 iterations 226
Cbc0038I Pass 102: suminf.   12.10133 (94) obj. 28517.5 iterations 165
Cbc0038I Pass 103: suminf.    9.60255 (85) obj. 28517.5 iterations 40
Cbc0038I Pass 104: suminf.   26.44720 (138) obj. 28517.5 iterations 270
Cbc0038I No solution found this major pass
Cbc0038I Before mini branch and bound, 125 integers at bound fixed and 0 continuous
Cbc0038I Full problem 1481 rows 489 columns, reduced to 1166 rows 364 columns - 117 fixed gives 616, 145 - ok now
Cbc0038I Mini branch and bound did not improve solution (0.47 seconds)
Cbc0038I After 0.47 seconds - Feasibility pump exiting with objective of 28672 - took 0.42 seconds
Cbc0012I Integer solution of 28672 found by feasibility pump after 0 iterations and 0 nodes (0.47 seconds)
Cbc0038I Full problem 1481 rows 489 columns, reduced to 303 rows 90 columns
Cbc0006I The LP relaxation is infeasible or too expensive
Cbc0013I At root node, 0 cuts changed objective from 27136 to 27136 in 1 passes
Cbc0014I Cut generator 0 (Probing) - 1 row cuts average 0.0 elements, 0 column cuts (0 active)  in 0.000 seconds - new frequency is 1
Cbc0014I Cut generator 1 (Gomory) - 0 row cuts average 0.0 elements, 0 column cuts (0 active)  in 0.000 seconds - new frequency is -100
Cbc0014I Cut generator 2 (Knapsack) - 0 row cuts average 0.0 elements, 0 column cuts (0 active)  in 0.000 seconds - new frequency is -100
Cbc0014I Cut generator 3 (Clique) - 0 row cuts average 0.0 elements, 0 column cuts (0 active)  in 0.000 seconds - new frequency is -100
Cbc0014I Cut generator 4 (MixedIntegerRounding2) - 0 row cuts average 0.0 elements, 0 column cuts (0 active)  in 0.000 seconds - new frequency is -100
Cbc0014I Cut generator 5 (FlowCover) - 0 row cuts average 0.0 elements, 0 column cuts (0 active)  in 0.000 seconds - new frequency is -100
Cbc0014I Cut generator 6 (TwoMirCuts) - 0 row cuts average 0.0 elements, 0 column cuts (0 active)  in 0.000 seconds - new frequency is -100
Cbc0014I Cut generator 7 (ZeroHalf) - 0 row cuts average 0.0 elements, 0 column cuts (0 active)  in 0.000 seconds - new frequency is -100
Cbc0001I Search completed - best objective 28672, took 0 iterations and 0 nodes (0.50 seconds)
Cbc0035I Maximum depth 0, 11 variables fixed on reduced cost
Cuts at root node changed objective from 27136 to 27136
Probing was tried 1 times and created 1 cuts of which 0 were active after adding rounds of cuts (0.000 seconds)
Gomory was tried 0 times and created 0 cuts of which 0 were active after adding rounds of cuts (0.000 seconds)
Knapsack was tried 0 times and created 0 cuts of which 0 were active after adding rounds of cuts (0.000 seconds)
Clique was tried 0 times and created 0 cuts of which 0 were active after adding rounds of cuts (0.000 seconds)
MixedIntegerRounding2 was tried 0 times and created 0 cuts of which 0 were active after adding rounds of cuts (0.000 seconds)
FlowCover was tried 0 times and created 0 cuts of which 0 were active after adding rounds of cuts (0.000 seconds)
TwoMirCuts was tried 0 times and created 0 cuts of which 0 were active after adding rounds of cuts (0.000 seconds)
ZeroHalf was tried 0 times and created 0 cuts of which 0 were active after adding rounds of cuts (0.000 seconds)

Result - Optimal solution found

Objective value:                28672.00000000
Enumerated nodes:               0
Total iterations:               0
Time (CPU seconds):             0.52
Time (Wallclock seconds):       0.53

Total time (CPU seconds):       0.53   (Wallclock seconds):       0.54

